
(set-logic ALL) 

(declare-datatype MyList ((Nil) (Cons (head Real) (tail MyList)) )) 
(declare-fun l0 () MyList) 
(declare-fun l1 () MyList) 
(declare-fun l2 () MyList) 
(declare-fun l3 () MyList) 
(declare-fun i0 () Real) 
(declare-fun i1 () Real) 
(assert (= l0 Nil) )
(assert (or (is-Cons Nil) (= l3 l3) (is-Nil l1)) )
(assert (or (= l3 Nil) (is-Nil Nil) (= l2 Nil) (= l2 Nil)) )
(assert (and (is-Nil l3) (is-Nil Nil) (= l2 l3) (= l0 Nil)) )
(assert (and (= l3 Nil) (= l2 l3)) )
(assert (is-Cons l1) )
(assert (is-Cons Nil) )
(assert (and (= l1 l3) (= l0 Nil) (= l3 Nil)) )
(check-sat)
